<number of tasks>
58

<cycle time>
56

<task times>
1 10
2 53
3 41
4 36
5 35
6 17
7 34
8 23
9 14
10 52
11 33
12 34
13 12
14 52
15 12
16 33
17 44
18 7
19 15
20 13
21 29
22 37
23 43
24 23
25 24
26 9
27 16
28 12
29 26
30 22
31 51
32 47
33 34
34 23
35 12
36 52
37 12
38 33
39 44
40 7
41 15
42 13
43 29
44 37
45 43
46 23
47 24
48 9
49 16
50 12
51 26
52 12
53 52
54 12
55 33
56 44
57 7
58 15

<precedence relations>
1,9
2,25
3,21
3,22
4,10
5,36
6,23
6,24
7,43
8,44
9,11
11,13
11,14
11,15
12,17
13,17
14,17
15,17
16,18
17,20
18,19
19,23
20,21
20,25
21,26
21,44
22,27
23,31
24,31
25,38
26,29
27,30
28,32
28,33
29,31
30,34
31,36
32,45
33,35
34,36
35,43
36,37
36,38
37,39
37,40
37,41
38,52
39,43
40,43
41,42
42,43
43,45
44,45
45,46
45,48
45,49
46,47
46,50
47,51
48,55
49,58
50,58
51,52
52,53
53,54
54,55
54,56
55,57
56,57
57,58

<setup times forward>
1,2:1
1,4:1
1,5:1
1,8:1
1,9:1
1,16:1
1,19:1
1,22:1
1,23:1
1,27:1
1,28:1
1,32:1
1,35:1
2,1:1
2,3:1
2,6:1
2,7:1
2,8:2
2,10:1
2,11:2
2,12:1
2,15:2
2,16:2
2,18:1
2,22:2
2,24:1
2,25:1
2,26:2
2,27:2
2,29:2
2,30:1
2,33:1
2,34:1
2,35:2
2,37:2
2,39:1
2,40:2
2,41:2
2,42:2
2,43:1
2,44:1
2,45:1
2,47:2
2,48:2
2,49:1
2,51:1
3,2:1
3,4:1
3,5:1
3,8:1
3,9:1
3,11:1
3,13:1
3,14:1
3,15:1
3,16:1
3,17:1
3,19:1
3,20:1
3,21:1
3,22:1
3,23:1
3,28:1
3,32:1
3,35:1
4,1:1
4,3:1
4,6:1
4,7:1
4,8:2
4,10:1
4,11:2
4,12:1
4,15:2
4,16:2
4,18:1
4,22:2
4,24:1
4,25:1
4,26:2
4,27:2
4,29:2
4,30:1
4,33:1
4,34:1
4,35:2
4,37:2
4,39:1
4,40:2
4,41:2
4,42:2
4,43:1
4,44:1
4,45:1
4,47:2
4,48:2
4,49:1
4,51:1
4,52:2
4,53:1
4,54:2
4,57:1
4,58:2
5,1:1
5,3:1
5,6:1
5,7:1
5,8:2
5,10:1
5,11:2
5,12:1
5,15:2
5,16:2
5,18:1
5,22:2
5,24:1
5,25:1
5,26:2
5,27:2
5,29:2
5,30:1
5,33:1
5,34:1
5,35:2
5,44:1
6,2:1
6,4:1
6,5:1
6,8:1
6,9:1
6,11:1
6,13:1
6,14:1
6,15:1
6,16:1
6,17:1
6,19:1
6,20:1
6,21:1
6,22:1
6,23:1
6,26:1
6,27:1
6,28:1
6,29:1
6,32:1
6,35:1
7,2:1
7,4:1
7,5:1
7,8:1
7,9:1
7,11:1
7,13:1
7,14:1
7,15:1
7,16:1
7,17:1
7,19:1
7,20:1
7,21:1
7,22:1
7,23:1
7,26:1
7,27:1
7,28:1
7,29:1
7,31:1
7,32:1
7,35:1
7,36:1
7,37:1
7,38:1
7,40:1
7,41:1
7,42:1
8,1:1
8,2:2
8,3:1
8,4:2
8,5:2
8,6:1
8,7:1
8,9:2
8,10:1
8,12:1
8,13:2
8,14:2
8,17:2
8,18:1
8,19:2
8,20:2
8,21:2
8,23:2
8,24:1
8,25:1
8,28:2
8,30:1
8,31:2
8,32:2
8,33:1
8,34:1
8,36:2
8,38:2
8,39:1
8,43:1
8,44:1
9,3:1
9,6:1
9,7:1
9,8:2
9,10:1
9,11:2
9,12:1
9,16:2
9,18:1
9,22:2
9,24:1
9,27:2
9,30:1
9,33:1
9,34:1
9,35:2
10,2:1
10,5:1
10,8:1
10,9:1
10,11:1
10,13:1
10,14:1
10,15:1
10,16:1
10,17:1
10,19:1
10,20:1
10,21:1
10,22:1
10,23:1
10,26:1
10,27:1
10,28:1
10,29:1
10,31:1
10,32:1
10,35:1
10,36:1
10,37:1
10,38:1
10,40:1
10,41:1
10,42:1
10,46:1
10,47:1
10,48:1
10,50:1
10,52:1
10,54:1
10,55:1
10,56:1
10,58:1
11,2:2
11,3:1
11,4:2
11,5:2
11,6:1
11,7:1
11,10:1
11,12:1
11,13:2
11,14:2
11,18:1
11,19:2
11,23:2
11,24:1
11,28:2
11,30:1
11,32:2
11,33:1
11,34:1
12,2:1
12,4:1
12,5:1
12,8:1
12,9:1
12,11:1
12,13:1
12,14:1
12,15:1
12,16:1
12,17:1
12,19:1
12,22:1
12,23:1
12,27:1
12,28:1
12,32:1
12,35:1
13,3:1
13,6:1
13,7:1
13,8:2
13,10:1
13,12:1
13,15:2
13,16:2
13,18:1
13,22:2
13,24:1
13,27:2
13,30:1
13,33:1
13,34:1
13,35:2
14,3:1
14,6:1
14,7:1
14,8:2
14,10:1
14,12:1
14,15:2
14,16:2
14,18:1
14,22:2
14,24:1
14,27:2
14,30:1
14,33:1
14,34:1
14,35:2
15,2:2
15,3:1
15,4:2
15,5:2
15,6:1
15,7:1
15,10:1
15,12:1
15,13:2
15,14:2
15,17:2
15,18:1
15,19:2
15,23:2
15,24:1
15,28:2
15,30:1
15,32:2
15,33:1
15,34:1
16,1:1
16,2:2
16,3:1
16,4:2
16,5:2
16,6:1
16,7:1
16,9:2
16,10:1
16,12:1
16,13:2
16,14:2
16,17:2
16,18:1
16,20:2
16,21:2
16,24:1
16,25:1
16,28:2
16,30:1
16,32:2
16,33:1
16,34:1
16,44:1
17,3:1
17,6:1
17,7:1
17,8:2
17,10:1
17,16:2
17,18:1
17,22:2
17,24:1
17,27:2
17,30:1
17,33:1
17,34:1
17,35:2
18,2:1
18,4:1
18,5:1
18,8:1
18,9:1
18,11:1
18,13:1
18,14:1
18,15:1
18,17:1
18,19:1
18,20:1
18,21:1
18,22:1
18,26:1
18,27:1
18,28:1
18,29:1
18,32:1
18,35:1
19,1:1
19,3:1
19,6:1
19,7:1
19,8:2
19,10:1
19,11:2
19,12:1
19,15:2
19,22:2
19,24:1
19,25:1
19,26:2
19,27:2
19,29:2
19,30:1
19,33:1
19,34:1
19,35:2
19,44:1
20,3:1
20,6:1
20,7:1
20,8:2
20,10:1
20,16:2
20,18:1
20,22:2
20,24:1
20,25:1
20,27:2
20,30:1
20,33:1
20,34:1
20,35:2
21,6:1
21,7:1
21,8:2
21,10:1
21,16:2
21,18:1
21,22:2
21,24:1
21,25:1
21,26:2
21,27:2
21,30:1
21,33:1
21,34:1
21,35:2
21,44:1
22,1:1
22,2:2
22,4:2
22,5:2
22,6:1
22,7:1
22,9:2
22,10:1
22,12:1
22,13:2
22,14:2
22,17:2
22,18:1
22,19:2
22,20:2
22,21:2
22,23:2
22,24:1
22,25:1
22,28:2
22,31:2
22,32:2
22,33:1
22,44:1
23,1:1
23,3:1
23,7:1
23,8:2
23,10:1
23,11:2
23,12:1
23,15:2
23,22:2
23,24:1
23,25:1
23,26:2
23,27:2
23,29:2
23,30:1
23,33:1
23,34:1
23,35:2
23,44:1
24,2:1
24,4:1
24,5:1
24,8:1
24,9:1
24,11:1
24,13:1
24,14:1
24,15:1
24,16:1
24,17:1
24,19:1
24,20:1
24,21:1
24,22:1
24,23:1
24,26:1
24,27:1
24,28:1
24,29:1
24,31:1
24,32:1
24,35:1
25,4:1
25,5:1
25,8:1
25,16:1
25,19:1
25,21:1
25,22:1
25,23:1
25,26:1
25,27:1
25,28:1
25,29:1
25,31:1
25,32:1
25,35:1
25,36:1
25,37:1
25,38:1
25,40:1
25,41:1
25,42:1
25,46:1
25,47:1
25,48:1
25,50:1
26,2:2
26,4:2
26,5:2
26,6:1
26,7:1
26,10:1
26,18:1
26,19:2
26,23:2
26,24:1
26,25:1
26,28:2
26,30:1
26,32:2
26,33:1
26,34:1
26,44:1
27,1:1
27,2:2
27,4:2
27,5:2
27,6:1
27,7:1
27,9:2
27,10:1
27,12:1
27,13:2
27,14:2
27,17:2
27,18:1
27,19:2
27,20:2
27,21:2
27,23:2
27,24:1
27,25:1
27,28:2
27,30:1
27,31:2
27,32:2
27,33:1
27,44:1
28,1:1
28,3:1
28,6:1
28,7:1
28,8:2
28,10:1
28,11:2
28,12:1
28,15:2
28,16:2
28,18:1
28,22:2
28,24:1
28,25:1
28,26:2
28,27:2
28,29:2
28,30:1
28,33:1
28,34:1
28,37:2
28,39:1
28,40:2
28,41:2
28,42:2
28,44:1
29,2:2
29,4:2
29,5:2
29,6:1
29,7:1
29,10:1
29,18:1
29,19:2
29,23:2
29,24:1
29,25:1
29,28:2
29,30:1
29,31:2
29,32:2
29,33:1
29,34:1
29,44:1
30,2:1
30,4:1
30,5:1
30,8:1
30,9:1
30,11:1
30,13:1
30,14:1
30,15:1
30,16:1
30,17:1
30,19:1
30,20:1
30,21:1
30,23:1
30,26:1
30,28:1
30,29:1
30,31:1
30,32:1
30,35:1
31,7:1
31,8:2
31,10:1
31,22:2
31,25:1
31,27:2
31,30:1
31,33:1
31,34:1
31,35:2
31,44:1
32,1:1
32,3:1
32,6:1
32,7:1
32,8:2
32,10:1
32,11:2
32,12:1
32,15:2
32,16:2
32,18:1
32,22:2
32,24:1
32,25:1
32,26:2
32,27:2
32,29:2
32,30:1
32,33:1
32,34:1
32,35:2
32,37:2
32,39:1
32,40:2
32,41:2
32,42:2
32,43:1
32,44:1
32,45:1
33,2:1
33,4:1
33,5:1
33,8:1
33,9:1
33,11:1
33,13:1
33,14:1
33,15:1
33,16:1
33,17:1
33,19:1
33,20:1
33,21:1
33,22:1
33,23:1
33,26:1
33,27:1
33,29:1
33,31:1
33,32:1
33,35:1
33,36:1
33,37:1
33,38:1
33,40:1
33,41:1
33,42:1
34,2:1
34,4:1
34,5:1
34,8:1
34,9:1
34,11:1
34,13:1
34,14:1
34,15:1
34,16:1
34,17:1
34,19:1
34,20:1
34,21:1
34,23:1
34,26:1
34,28:1
34,29:1
34,31:1
34,32:1
34,35:1
34,36:1
35,1:1
35,2:2
35,3:1
35,4:2
35,5:2
35,6:1
35,7:1
35,9:2
35,10:1
35,12:1
35,13:2
35,14:2
35,17:2
35,18:1
35,19:2
35,20:2
35,21:2
35,23:2
35,24:1
35,25:1
35,30:1
35,31:2
35,32:2
35,34:1
35,36:2
35,38:2
35,39:1
35,43:1
35,44:1
36,7:1
36,8:2
36,10:1
36,25:1
36,33:1
36,35:2
36,37:2
36,44:1
37,2:2
37,4:2
37,7:1
37,10:1
37,25:1
37,28:2
37,32:2
37,33:1
37,38:2
37,39:1
37,44:1
38,7:1
38,8:2
38,10:1
38,33:1
38,35:2
38,37:2
38,39:1
38,40:2
38,41:2
38,42:2
38,43:1
38,44:1
38,45:1
38,47:2
38,48:2
38,49:1
38,51:1
38,52:2
39,2:1
39,4:1
39,8:1
39,28:1
39,32:1
39,35:1
39,38:1
39,40:1
39,41:1
39,42:1
40,2:2
40,4:2
40,7:1
40,10:1
40,25:1
40,28:2
40,32:2
40,33:1
40,38:2
40,39:1
40,43:1
40,44:1
41,2:2
41,4:2
41,7:1
41,10:1
41,25:1
41,28:2
41,32:2
41,33:1
41,38:2
41,39:1
41,44:1
42,2:2
42,4:2
42,7:1
42,10:1
42,25:1
42,28:2
42,32:2
42,33:1
42,38:2
42,39:1
42,43:1
42,44:1
43,2:1
43,4:1
43,8:1
43,32:1
43,38:1
44,2:1
44,4:1
44,5:1
44,16:1
44,19:1
44,22:1
44,23:1
44,26:1
44,27:1
44,28:1
44,29:1
44,31:1
44,32:1
44,35:1
44,36:1
44,37:1
44,38:1
44,40:1
44,41:1
44,42:1
45,2:1
45,4:1
45,38:1
45,46:1
45,48:1
46,10:1
46,25:1
46,47:2
46,48:2
46,49:1
47,2:2
47,4:2
47,10:1
47,25:1
47,38:2
47,49:1
47,50:2
47,51:1
48,2:2
48,4:2
48,10:1
48,25:1
48,38:2
48,46:2
48,49:1
48,50:2
48,51:1
48,53:1
48,55:2
48,56:2
49,2:1
49,4:1
49,38:1
49,46:1
49,47:1
49,48:1
49,50:1
49,52:1
49,54:1
49,55:1
49,56:1
49,58:1
50,10:1
50,25:1
50,47:2
50,48:2
50,49:1
50,51:1
50,52:2
50,53:1
50,54:2
50,57:1
50,58:2
51,2:1
51,4:1
51,38:1
51,48:1
51,50:1
51,52:1
52,4:2
52,10:1
52,49:1
52,50:2
52,53:1
53,4:1
53,48:1
53,50:1
53,54:1
54,4:2
54,10:1
54,49:1
54,50:2
54,55:2
54,56:2
55,10:1
55,49:1
55,57:1
56,10:1
56,48:2
56,49:1
56,57:1
57,4:1
57,50:1
57,58:1
58,4:2
58,10:1

<setup times backward>
1,1:3
1,2:2
1,3:3
1,4:2
1,5:2
1,6:3
1,7:3
1,8:4
1,10:3
1,12:3
1,16:4
1,18:3
1,19:2
1,22:4
1,23:2
1,24:3
1,27:4
1,28:2
1,30:3
1,32:2
1,33:3
1,34:3
1,35:4
2,1:4
2,2:3
2,3:4
2,4:3
2,5:3
2,6:4
2,7:4
2,8:5
2,9:3
2,10:4
2,11:5
2,12:4
2,13:3
2,14:3
2,15:5
2,16:5
2,17:3
2,18:4
2,19:3
2,20:3
2,21:3
2,22:5
2,23:3
2,24:4
2,26:5
2,27:5
2,28:3
2,29:5
2,30:4
2,31:3
2,32:3
2,33:4
2,34:4
2,35:5
2,36:3
2,37:5
2,39:4
2,40:5
2,41:5
2,42:5
2,43:4
2,44:4
2,45:4
2,46:3
2,47:5
2,48:5
2,49:4
2,50:3
2,51:4
3,1:3
3,2:2
3,3:3
3,4:2
3,5:2
3,6:3
3,7:3
3,8:4
3,9:2
3,10:3
3,11:4
3,12:3
3,13:2
3,14:2
3,15:4
3,16:4
3,17:2
3,18:3
3,19:2
3,20:2
3,23:2
3,24:3
3,25:3
3,28:2
3,32:2
3,33:3
3,35:4
4,1:4
4,2:3
4,3:4
4,4:3
4,5:3
4,6:4
4,7:4
4,8:5
4,9:3
4,11:5
4,12:4
4,13:3
4,14:3
4,15:5
4,16:5
4,17:3
4,18:4
4,19:3
4,20:3
4,21:3
4,22:5
4,23:3
4,24:4
4,25:4
4,26:5
4,27:5
4,28:3
4,29:5
4,30:4
4,31:3
4,32:3
4,33:4
4,34:4
4,35:5
4,36:3
4,37:5
4,38:3
4,39:4
4,40:5
4,41:5
4,42:5
4,43:4
4,44:4
4,45:4
4,46:3
4,47:5
4,48:5
4,49:4
4,50:3
4,51:4
4,52:5
4,53:4
4,54:5
4,55:3
4,56:3
4,57:4
4,58:5
5,1:4
5,2:3
5,3:4
5,4:3
5,5:3
5,6:4
5,7:4
5,8:5
5,9:3
5,10:4
5,11:5
5,12:4
5,13:3
5,14:3
5,15:5
5,16:5
5,17:3
5,18:4
5,19:3
5,20:3
5,21:3
5,22:5
5,23:3
5,24:4
5,25:4
5,26:5
5,27:5
5,28:3
5,29:5
5,30:4
5,31:3
5,32:3
5,33:4
5,34:4
5,35:5
5,44:4
6,1:3
6,2:2
6,3:3
6,4:2
6,5:2
6,6:3
6,7:3
6,8:4
6,9:2
6,10:3
6,11:4
6,12:3
6,13:2
6,14:2
6,15:4
6,16:4
6,17:2
6,18:3
6,19:2
6,20:2
6,21:2
6,22:4
6,25:3
6,26:4
6,27:4
6,28:2
6,29:4
6,30:3
6,32:2
6,33:3
6,34:3
6,35:4
6,44:3
7,1:3
7,2:2
7,3:3
7,4:2
7,5:2
7,6:3
7,7:3
7,8:4
7,9:2
7,10:3
7,11:4
7,12:3
7,13:2
7,14:2
7,15:4
7,16:4
7,17:2
7,18:3
7,19:2
7,20:2
7,21:2
7,22:4
7,23:2
7,24:3
7,25:3
7,26:4
7,27:4
7,28:2
7,29:4
7,30:3
7,31:2
7,32:2
7,33:3
7,34:3
7,35:4
7,36:2
7,37:4
7,38:2
7,39:3
7,40:4
7,41:4
7,42:4
7,44:3
8,1:2
8,2:1
8,3:2
8,4:1
8,5:1
8,6:2
8,7:2
8,8:3
8,9:1
8,10:2
8,11:3
8,12:2
8,13:1
8,14:1
8,15:3
8,16:3
8,17:1
8,18:2
8,19:1
8,20:1
8,21:1
8,22:3
8,23:1
8,24:2
8,25:2
8,26:3
8,27:3
8,28:1
8,29:3
8,30:2
8,31:1
8,32:1
8,33:2
8,34:2
8,35:3
8,36:1
8,37:3
8,38:1
8,39:2
8,40:3
8,41:3
8,42:3
8,43:2
9,1:4
9,2:3
9,3:4
9,4:3
9,5:3
9,6:4
9,7:4
9,8:5
9,9:3
9,10:4
9,12:4
9,16:5
9,18:4
9,19:3
9,22:5
9,23:3
9,24:4
9,27:5
9,28:3
9,30:4
9,32:3
9,33:4
9,34:4
9,35:5
10,1:3
10,2:2
10,3:3
10,4:2
10,5:2
10,6:3
10,7:3
10,8:4
10,9:2
10,10:3
10,11:4
10,12:3
10,13:2
10,14:2
10,15:4
10,16:4
10,17:2
10,18:3
10,19:2
10,20:2
10,21:2
10,22:4
10,23:2
10,24:3
10,25:3
10,26:4
10,27:4
10,28:2
10,29:4
10,30:3
10,31:2
10,32:2
10,33:3
10,34:3
10,35:4
10,36:2
10,37:4
10,38:2
10,39:3
10,40:4
10,41:4
10,42:4
10,43:3
10,44:3
10,45:3
10,46:2
10,47:4
10,48:4
10,49:3
10,50:2
10,51:3
10,52:4
10,53:3
10,54:4
10,55:2
10,56:2
10,57:3
10,58:4
11,1:2
11,2:1
11,3:2
11,4:1
11,5:1
11,6:2
11,7:2
11,8:3
11,9:1
11,10:2
11,11:3
11,12:2
11,16:3
11,18:2
11,19:1
11,22:3
11,23:1
11,24:2
11,27:3
11,28:1
11,30:2
11,32:1
11,33:2
11,34:2
11,35:3
12,1:3
12,2:2
12,3:3
12,4:2
12,5:2
12,6:3
12,7:3
12,8:4
12,9:2
12,10:3
12,11:4
12,12:3
12,13:2
12,14:2
12,15:4
12,16:4
12,18:3
12,19:2
12,22:4
12,23:2
12,24:3
12,27:4
12,28:2
12,30:3
12,32:2
12,33:3
12,34:3
12,35:4
13,1:4
13,2:3
13,3:4
13,4:3
13,5:3
13,6:4
13,7:4
13,8:5
13,9:3
13,10:4
13,11:5
13,12:4
13,13:3
13,14:3
13,15:5
13,16:5
13,18:4
13,19:3
13,22:5
13,23:3
13,24:4
13,27:5
13,28:3
13,30:4
13,32:3
13,33:4
13,34:4
13,35:5
14,1:4
14,2:3
14,3:4
14,4:3
14,5:3
14,6:4
14,7:4
14,8:5
14,9:3
14,10:4
14,11:5
14,12:4
14,13:3
14,14:3
14,15:5
14,16:5
14,18:4
14,19:3
14,22:5
14,23:3
14,24:4
14,27:5
14,28:3
14,30:4
14,32:3
14,33:4
14,34:4
14,35:5
15,1:2
15,2:1
15,3:2
15,4:1
15,5:1
15,6:2
15,7:2
15,8:3
15,9:1
15,10:2
15,11:3
15,12:2
15,13:1
15,14:1
15,15:3
15,16:3
15,18:2
15,19:1
15,22:3
15,23:1
15,24:2
15,27:3
15,28:1
15,30:2
15,32:1
15,33:2
15,34:2
15,35:3
16,1:2
16,2:1
16,3:2
16,4:1
16,5:1
16,6:2
16,7:2
16,8:3
16,9:1
16,10:2
16,11:3
16,12:2
16,13:1
16,14:1
16,15:3
16,16:3
16,17:1
16,20:1
16,21:1
16,22:3
16,24:2
16,25:2
16,26:3
16,27:3
16,28:1
16,29:3
16,30:2
16,32:1
16,33:2
16,34:2
16,35:3
16,44:2
17,1:4
17,2:3
17,3:4
17,4:3
17,5:3
17,6:4
17,7:4
17,8:5
17,9:3
17,10:4
17,11:5
17,12:4
17,13:3
17,14:3
17,15:5
17,16:5
17,17:3
17,18:4
17,19:3
17,22:5
17,23:3
17,24:4
17,27:5
17,28:3
17,30:4
17,32:3
17,33:4
17,34:4
17,35:5
18,1:3
18,2:2
18,3:3
18,4:2
18,5:2
18,6:3
18,7:3
18,8:4
18,9:2
18,10:3
18,11:4
18,12:3
18,13:2
18,14:2
18,15:4
18,16:4
18,17:2
18,18:3
18,20:2
18,21:2
18,22:4
18,24:3
18,25:3
18,26:4
18,27:4
18,28:2
18,29:4
18,30:3
18,32:2
18,33:3
18,34:3
18,35:4
18,44:3
19,1:4
19,2:3
19,3:4
19,4:3
19,5:3
19,6:4
19,7:4
19,8:5
19,9:3
19,10:4
19,11:5
19,12:4
19,13:3
19,14:3
19,15:5
19,16:5
19,17:3
19,18:4
19,19:3
19,20:3
19,21:3
19,22:5
19,24:4
19,25:4
19,26:5
19,27:5
19,28:3
19,29:5
19,30:4
19,32:3
19,33:4
19,34:4
19,35:5
19,44:4
20,1:4
20,2:3
20,3:4
20,4:3
20,5:3
20,6:4
20,7:4
20,8:5
20,9:3
20,10:4
20,11:5
20,12:4
20,13:3
20,14:3
20,15:5
20,16:5
20,17:3
20,18:4
20,19:3
20,20:3
20,22:5
20,23:3
20,24:4
20,27:5
20,28:3
20,30:4
20,32:3
20,33:4
20,34:4
20,35:5
21,1:4
21,2:3
21,3:4
21,4:3
21,5:3
21,6:4
21,7:4
21,8:5
21,9:3
21,10:4
21,11:5
21,12:4
21,13:3
21,14:3
21,15:5
21,16:5
21,17:3
21,18:4
21,19:3
21,20:3
21,21:3
21,22:5
21,23:3
21,24:4
21,25:4
21,27:5
21,28:3
21,30:4
21,32:3
21,33:4
21,34:4
21,35:5
22,1:2
22,2:1
22,3:2
22,4:1
22,5:1
22,6:2
22,7:2
22,8:3
22,9:1
22,10:2
22,11:3
22,12:2
22,13:1
22,14:1
22,15:3
22,16:3
22,17:1
22,18:2
22,19:1
22,20:1
22,21:1
22,22:3
22,23:1
22,24:2
22,25:2
22,26:3
22,28:1
22,29:3
22,31:1
22,32:1
22,33:2
22,35:3
22,44:2
23,1:4
23,2:3
23,3:4
23,4:3
23,5:3
23,6:4
23,7:4
23,8:5
23,9:3
23,10:4
23,11:5
23,12:4
23,13:3
23,14:3
23,15:5
23,16:5
23,17:3
23,18:4
23,19:3
23,20:3
23,21:3
23,22:5
23,23:3
23,24:4
23,25:4
23,26:5
23,27:5
23,28:3
23,29:5
23,30:4
23,32:3
23,33:4
23,34:4
23,35:5
23,44:4
24,1:3
24,2:2
24,3:3
24,4:2
24,5:2
24,6:3
24,7:3
24,8:4
24,9:2
24,10:3
24,11:4
24,12:3
24,13:2
24,14:2
24,15:4
24,16:4
24,17:2
24,18:3
24,19:2
24,20:2
24,21:2
24,22:4
24,23:2
24,24:3
24,25:3
24,26:4
24,27:4
24,28:2
24,29:4
24,30:3
24,32:2
24,33:3
24,34:3
24,35:4
24,44:3
25,1:3
25,2:2
25,3:3
25,4:2
25,5:2
25,6:3
25,7:3
25,8:4
25,9:2
25,10:3
25,11:4
25,12:3
25,13:2
25,14:2
25,15:4
25,16:4
25,17:2
25,18:3
25,19:2
25,20:2
25,21:2
25,22:4
25,23:2
25,24:3
25,25:3
25,26:4
25,27:4
25,28:2
25,29:4
25,30:3
25,31:2
25,32:2
25,33:3
25,34:3
25,35:4
25,36:2
25,37:4
25,39:3
25,40:4
25,41:4
25,42:4
25,43:3
25,44:3
25,45:3
25,46:2
25,47:4
25,48:4
25,49:3
25,50:2
25,51:3
26,1:2
26,2:1
26,3:2
26,4:1
26,5:1
26,6:2
26,7:2
26,8:3
26,9:1
26,10:2
26,11:3
26,12:2
26,13:1
26,14:1
26,15:3
26,16:3
26,17:1
26,18:2
26,19:1
26,20:1
26,21:1
26,22:3
26,23:1
26,24:2
26,25:2
26,26:3
26,27:3
26,28:1
26,30:2
26,32:1
26,33:2
26,34:2
26,35:3
26,44:2
27,1:2
27,2:1
27,3:2
27,4:1
27,5:1
27,6:2
27,7:2
27,8:3
27,9:1
27,10:2
27,11:3
27,12:2
27,13:1
27,14:1
27,15:3
27,16:3
27,17:1
27,18:2
27,19:1
27,20:1
27,21:1
27,22:3
27,23:1
27,24:2
27,25:2
27,26:3
27,27:3
27,28:1
27,29:3
27,31:1
27,32:1
27,33:2
27,35:3
27,44:2
28,1:4
28,2:3
28,3:4
28,4:3
28,5:3
28,6:4
28,7:4
28,8:5
28,9:3
28,10:4
28,11:5
28,12:4
28,13:3
28,14:3
28,15:5
28,16:5
28,17:3
28,18:4
28,19:3
28,20:3
28,21:3
28,22:5
28,23:3
28,24:4
28,25:4
28,26:5
28,27:5
28,28:3
28,29:5
28,30:4
28,31:3
28,34:4
28,36:3
28,37:5
28,38:3
28,39:4
28,40:5
28,41:5
28,42:5
28,44:4
29,1:2
29,2:1
29,3:2
29,4:1
29,5:1
29,6:2
29,7:2
29,8:3
29,9:1
29,10:2
29,11:3
29,12:2
29,13:1
29,14:1
29,15:3
29,16:3
29,17:1
29,18:2
29,19:1
29,20:1
29,21:1
29,22:3
29,23:1
29,24:2
29,25:2
29,26:3
29,27:3
29,28:1
29,29:3
29,30:2
29,32:1
29,33:2
29,34:2
29,35:3
29,44:2
30,1:3
30,2:2
30,3:3
30,4:2
30,5:2
30,6:3
30,7:3
30,8:4
30,9:2
30,10:3
30,11:4
30,12:3
30,13:2
30,14:2
30,15:4
30,16:4
30,17:2
30,18:3
30,19:2
30,20:2
30,21:2
30,22:4
30,23:2
30,24:3
30,25:3
30,26:4
30,27:4
30,28:2
30,29:4
30,30:3
30,31:2
30,32:2
30,33:3
30,35:4
30,44:3
31,1:4
31,2:3
31,3:4
31,4:3
31,5:3
31,6:4
31,7:4
31,8:5
31,9:3
31,10:4
31,11:5
31,12:4
31,13:3
31,14:3
31,15:5
31,16:5
31,17:3
31,18:4
31,19:3
31,20:3
31,21:3
31,22:5
31,23:3
31,24:4
31,25:4
31,26:5
31,27:5
31,28:3
31,29:5
31,30:4
31,31:3
31,32:3
31,33:4
31,34:4
31,35:5
31,44:4
32,1:4
32,2:3
32,3:4
32,4:3
32,5:3
32,6:4
32,7:4
32,8:5
32,9:3
32,10:4
32,11:5
32,12:4
32,13:3
32,14:3
32,15:5
32,16:5
32,17:3
32,18:4
32,19:3
32,20:3
32,21:3
32,22:5
32,23:3
32,24:4
32,25:4
32,26:5
32,27:5
32,28:3
32,29:5
32,30:4
32,31:3
32,32:3
32,33:4
32,34:4
32,35:5
32,36:3
32,37:5
32,38:3
32,39:4
32,40:5
32,41:5
32,42:5
32,43:4
32,44:4
33,1:3
33,2:2
33,3:3
33,4:2
33,5:2
33,6:3
33,7:3
33,8:4
33,9:2
33,10:3
33,11:4
33,12:3
33,13:2
33,14:2
33,15:4
33,16:4
33,17:2
33,18:3
33,19:2
33,20:2
33,21:2
33,22:4
33,23:2
33,24:3
33,25:3
33,26:4
33,27:4
33,28:2
33,29:4
33,30:3
33,31:2
33,32:2
33,33:3
33,34:3
33,36:2
33,37:4
33,38:2
33,39:3
33,40:4
33,41:4
33,42:4
33,44:3
34,1:3
34,2:2
34,3:3
34,4:2
34,5:2
34,6:3
34,7:3
34,8:4
34,9:2
34,10:3
34,11:4
34,12:3
34,13:2
34,14:2
34,15:4
34,16:4
34,17:2
34,18:3
34,19:2
34,20:2
34,21:2
34,22:4
34,23:2
34,24:3
34,25:3
34,26:4
34,27:4
34,28:2
34,29:4
34,30:3
34,31:2
34,32:2
34,33:3
34,34:3
34,35:4
34,44:3
35,1:2
35,2:1
35,3:2
35,4:1
35,5:1
35,6:2
35,7:2
35,8:3
35,9:1
35,10:2
35,11:3
35,12:2
35,13:1
35,14:1
35,15:3
35,16:3
35,17:1
35,18:2
35,19:1
35,20:1
35,21:1
35,22:3
35,23:1
35,24:2
35,25:2
35,26:3
35,27:3
35,28:1
35,29:3
35,30:2
35,31:1
35,32:1
35,33:2
35,34:2
35,35:3
35,36:1
35,37:3
35,38:1
35,39:2
35,40:3
35,41:3
35,42:3
35,44:2
36,1:4
36,2:3
36,3:4
36,4:3
36,5:3
36,6:4
36,7:4
36,8:5
36,9:3
36,10:4
36,11:5
36,12:4
36,13:3
36,14:3
36,15:5
36,16:5
36,17:3
36,18:4
36,19:3
36,20:3
36,21:3
36,22:5
36,23:3
36,24:4
36,25:4
36,26:5
36,27:5
36,28:3
36,29:5
36,30:4
36,31:3
36,32:3
36,33:4
36,34:4
36,35:5
36,36:3
36,44:4
37,1:2
37,2:1
37,3:2
37,4:1
37,5:1
37,6:2
37,7:2
37,8:3
37,9:1
37,10:2
37,11:3
37,12:2
37,13:1
37,14:1
37,15:3
37,16:3
37,17:1
37,18:2
37,19:1
37,20:1
37,21:1
37,22:3
37,23:1
37,24:2
37,25:2
37,26:3
37,27:3
37,28:1
37,29:3
37,30:2
37,31:1
37,32:1
37,33:2
37,34:2
37,35:3
37,36:1
37,37:3
37,38:1
37,44:2
38,1:4
38,2:3
38,3:4
38,4:3
38,5:3
38,6:4
38,7:4
38,8:5
38,9:3
38,10:4
38,11:5
38,12:4
38,13:3
38,14:3
38,15:5
38,16:5
38,17:3
38,18:4
38,19:3
38,20:3
38,21:3
38,22:5
38,23:3
38,24:4
38,25:4
38,26:5
38,27:5
38,28:3
38,29:5
38,30:4
38,31:3
38,32:3
38,33:4
38,34:4
38,35:5
38,36:3
38,37:5
38,38:3
38,39:4
38,40:5
38,41:5
38,42:5
38,43:4
38,44:4
38,45:4
38,46:3
38,47:5
38,48:5
38,49:4
38,50:3
38,51:4
39,1:3
39,2:2
39,3:3
39,4:2
39,5:2
39,6:3
39,7:3
39,8:4
39,9:2
39,10:3
39,11:4
39,12:3
39,13:2
39,14:2
39,15:4
39,16:4
39,17:2
39,18:3
39,19:2
39,20:2
39,21:2
39,22:4
39,23:2
39,24:3
39,25:3
39,26:4
39,27:4
39,28:2
39,29:4
39,30:3
39,31:2
39,32:2
39,33:3
39,34:3
39,35:4
39,36:2
39,37:4
39,38:2
39,39:3
39,40:4
39,41:4
39,42:4
39,44:3
40,1:2
40,2:1
40,3:2
40,4:1
40,5:1
40,6:2
40,7:2
40,8:3
40,9:1
40,10:2
40,11:3
40,12:2
40,13:1
40,14:1
40,15:3
40,16:3
40,17:1
40,18:2
40,19:1
40,20:1
40,21:1
40,22:3
40,23:1
40,24:2
40,25:2
40,26:3
40,27:3
40,28:1
40,29:3
40,30:2
40,31:1
40,32:1
40,33:2
40,34:2
40,35:3
40,36:1
40,37:3
40,38:1
40,39:2
40,40:3
40,41:3
40,42:3
40,44:2
41,1:2
41,2:1
41,3:2
41,4:1
41,5:1
41,6:2
41,7:2
41,8:3
41,9:1
41,10:2
41,11:3
41,12:2
41,13:1
41,14:1
41,15:3
41,16:3
41,17:1
41,18:2
41,19:1
41,20:1
41,21:1
41,22:3
41,23:1
41,24:2
41,25:2
41,26:3
41,27:3
41,28:1
41,29:3
41,30:2
41,31:1
41,32:1
41,33:2
41,34:2
41,35:3
41,36:1
41,37:3
41,38:1
41,39:2
41,40:3
41,41:3
41,44:2
42,1:2
42,2:1
42,3:2
42,4:1
42,5:1
42,6:2
42,7:2
42,8:3
42,9:1
42,10:2
42,11:3
42,12:2
42,13:1
42,14:1
42,15:3
42,16:3
42,17:1
42,18:2
42,19:1
42,20:1
42,21:1
42,22:3
42,23:1
42,24:2
42,25:2
42,26:3
42,27:3
42,28:1
42,29:3
42,30:2
42,31:1
42,32:1
42,33:2
42,34:2
42,35:3
42,36:1
42,37:3
42,38:1
42,39:2
42,40:3
42,41:3
42,42:3
42,44:2
43,1:3
43,2:2
43,3:3
43,4:2
43,5:2
43,6:3
43,7:3
43,8:4
43,9:2
43,10:3
43,11:4
43,12:3
43,13:2
43,14:2
43,15:4
43,16:4
43,17:2
43,18:3
43,19:2
43,20:2
43,21:2
43,22:4
43,23:2
43,24:3
43,25:3
43,26:4
43,27:4
43,28:2
43,29:4
43,30:3
43,31:2
43,32:2
43,33:3
43,34:3
43,35:4
43,36:2
43,37:4
43,38:2
43,39:3
43,40:4
43,41:4
43,42:4
43,43:3
43,44:3
44,1:3
44,2:2
44,3:3
44,4:2
44,5:2
44,6:3
44,7:3
44,8:4
44,9:2
44,10:3
44,11:4
44,12:3
44,13:2
44,14:2
44,15:4
44,16:4
44,17:2
44,18:3
44,19:2
44,20:2
44,21:2
44,22:4
44,23:2
44,24:3
44,25:3
44,26:4
44,27:4
44,28:2
44,29:4
44,30:3
44,31:2
44,32:2
44,33:3
44,34:3
44,35:4
44,36:2
44,37:4
44,38:2
44,39:3
44,40:4
44,41:4
44,42:4
44,43:3
44,44:3
45,1:3
45,2:2
45,3:3
45,4:2
45,5:2
45,6:3
45,7:3
45,8:4
45,9:2
45,10:3
45,11:4
45,12:3
45,13:2
45,14:2
45,15:4
45,16:4
45,17:2
45,18:3
45,19:2
45,20:2
45,21:2
45,22:4
45,23:2
45,24:3
45,25:3
45,26:4
45,27:4
45,28:2
45,29:4
45,30:3
45,31:2
45,32:2
45,33:3
45,34:3
45,35:4
45,36:2
45,37:4
45,38:2
45,39:3
45,40:4
45,41:4
45,42:4
45,43:3
45,44:3
45,45:3
46,1:4
46,2:3
46,3:4
46,4:3
46,5:3
46,6:4
46,7:4
46,8:5
46,9:3
46,10:4
46,11:5
46,12:4
46,13:3
46,14:3
46,15:5
46,16:5
46,17:3
46,18:4
46,19:3
46,20:3
46,21:3
46,22:5
46,23:3
46,24:4
46,25:4
46,26:5
46,27:5
46,28:3
46,29:5
46,30:4
46,31:3
46,32:3
46,33:4
46,34:4
46,35:5
46,36:3
46,37:5
46,38:3
46,39:4
46,40:5
46,41:5
46,42:5
46,43:4
46,44:4
46,45:4
46,46:3
46,48:5
46,49:4
47,1:2
47,2:1
47,3:2
47,4:1
47,5:1
47,6:2
47,7:2
47,8:3
47,9:1
47,10:2
47,11:3
47,12:2
47,13:1
47,14:1
47,15:3
47,16:3
47,17:1
47,18:2
47,19:1
47,20:1
47,21:1
47,22:3
47,23:1
47,24:2
47,25:2
47,26:3
47,27:3
47,28:1
47,29:3
47,30:2
47,31:1
47,32:1
47,33:2
47,34:2
47,35:3
47,36:1
47,37:3
47,38:1
47,39:2
47,40:3
47,41:3
47,42:3
47,43:2
47,44:2
47,45:2
47,46:1
47,47:3
47,48:3
47,49:2
47,50:1
48,1:2
48,2:1
48,3:2
48,4:1
48,5:1
48,6:2
48,7:2
48,8:3
48,9:1
48,10:2
48,11:3
48,12:2
48,13:1
48,14:1
48,15:3
48,16:3
48,17:1
48,18:2
48,19:1
48,20:1
48,21:1
48,22:3
48,23:1
48,24:2
48,25:2
48,26:3
48,27:3
48,28:1
48,29:3
48,30:2
48,31:1
48,32:1
48,33:2
48,34:2
48,35:3
48,36:1
48,37:3
48,38:1
48,39:2
48,40:3
48,41:3
48,42:3
48,43:2
48,44:2
48,45:2
48,46:1
48,47:3
48,48:3
48,49:2
48,50:1
48,51:2
48,52:3
48,53:2
48,54:3
48,56:1
49,1:3
49,2:2
49,3:3
49,4:2
49,5:2
49,6:3
49,7:3
49,8:4
49,9:2
49,10:3
49,11:4
49,12:3
49,13:2
49,14:2
49,15:4
49,16:4
49,17:2
49,18:3
49,19:2
49,20:2
49,21:2
49,22:4
49,23:2
49,24:3
49,25:3
49,26:4
49,27:4
49,28:2
49,29:4
49,30:3
49,31:2
49,32:2
49,33:3
49,34:3
49,35:4
49,36:2
49,37:4
49,38:2
49,39:3
49,40:4
49,41:4
49,42:4
49,43:3
49,44:3
49,45:3
49,46:2
49,47:4
49,48:4
49,49:3
49,50:2
49,51:3
49,52:4
49,53:3
49,54:4
49,55:2
49,56:2
49,57:3
50,1:4
50,2:3
50,3:4
50,4:3
50,5:3
50,6:4
50,7:4
50,8:5
50,9:3
50,10:4
50,11:5
50,12:4
50,13:3
50,14:3
50,15:5
50,16:5
50,17:3
50,18:4
50,19:3
50,20:3
50,21:3
50,22:5
50,23:3
50,24:4
50,25:4
50,26:5
50,27:5
50,28:3
50,29:5
50,30:4
50,31:3
50,32:3
50,33:4
50,34:4
50,35:5
50,36:3
50,37:5
50,38:3
50,39:4
50,40:5
50,41:5
50,42:5
50,43:4
50,44:4
50,45:4
50,46:3
50,47:5
50,48:5
50,49:4
50,50:3
50,51:4
50,52:5
50,53:4
50,54:5
50,55:3
50,56:3
50,57:4
51,1:3
51,2:2
51,3:3
51,4:2
51,5:2
51,6:3
51,7:3
51,8:4
51,9:2
51,10:3
51,11:4
51,12:3
51,13:2
51,14:2
51,15:4
51,16:4
51,17:2
51,18:3
51,19:2
51,20:2
51,21:2
51,22:4
51,23:2
51,24:3
51,25:3
51,26:4
51,27:4
51,28:2
51,29:4
51,30:3
51,31:2
51,32:2
51,33:3
51,34:3
51,35:4
51,36:2
51,37:4
51,38:2
51,39:3
51,40:4
51,41:4
51,42:4
51,43:3
51,44:3
51,45:3
51,46:2
51,47:4
51,48:4
51,49:3
51,50:2
51,51:3
52,1:2
52,2:1
52,3:2
52,4:1
52,5:1
52,6:2
52,7:2
52,8:3
52,9:1
52,10:2
52,11:3
52,12:2
52,13:1
52,14:1
52,15:3
52,16:3
52,17:1
52,18:2
52,19:1
52,20:1
52,21:1
52,22:3
52,23:1
52,24:2
52,25:2
52,26:3
52,27:3
52,28:1
52,29:3
52,30:2
52,31:1
52,32:1
52,33:2
52,34:2
52,35:3
52,36:1
52,37:3
52,38:1
52,39:2
52,40:3
52,41:3
52,42:3
52,43:2
52,44:2
52,45:2
52,46:1
52,47:3
52,48:3
52,49:2
52,50:1
52,51:2
52,52:3
53,1:3
53,2:2
53,3:3
53,4:2
53,5:2
53,6:3
53,7:3
53,8:4
53,9:2
53,10:3
53,11:4
53,12:3
53,13:2
53,14:2
53,15:4
53,16:4
53,17:2
53,18:3
53,19:2
53,20:2
53,21:2
53,22:4
53,23:2
53,24:3
53,25:3
53,26:4
53,27:4
53,28:2
53,29:4
53,30:3
53,31:2
53,32:2
53,33:3
53,34:3
53,35:4
53,36:2
53,37:4
53,38:2
53,39:3
53,40:4
53,41:4
53,42:4
53,43:3
53,44:3
53,45:3
53,46:2
53,47:4
53,48:4
53,49:3
53,50:2
53,51:3
53,52:4
53,53:3
54,1:2
54,2:1
54,3:2
54,4:1
54,5:1
54,6:2
54,7:2
54,8:3
54,9:1
54,10:2
54,11:3
54,12:2
54,13:1
54,14:1
54,15:3
54,16:3
54,17:1
54,18:2
54,19:1
54,20:1
54,21:1
54,22:3
54,23:1
54,24:2
54,25:2
54,26:3
54,27:3
54,28:1
54,29:3
54,30:2
54,31:1
54,32:1
54,33:2
54,34:2
54,35:3
54,36:1
54,37:3
54,38:1
54,39:2
54,40:3
54,41:3
54,42:3
54,43:2
54,44:2
54,45:2
54,46:1
54,47:3
54,48:3
54,49:2
54,50:1
54,51:2
54,52:3
54,53:2
54,54:3
55,1:4
55,2:3
55,3:4
55,4:3
55,5:3
55,6:4
55,7:4
55,8:5
55,9:3
55,10:4
55,11:5
55,12:4
55,13:3
55,14:3
55,15:5
55,16:5
55,17:3
55,18:4
55,19:3
55,20:3
55,21:3
55,22:5
55,23:3
55,24:4
55,25:4
55,26:5
55,27:5
55,28:3
55,29:5
55,30:4
55,31:3
55,32:3
55,33:4
55,34:4
55,35:5
55,36:3
55,37:5
55,38:3
55,39:4
55,40:5
55,41:5
55,42:5
55,43:4
55,44:4
55,45:4
55,46:3
55,47:5
55,48:5
55,49:4
55,50:3
55,51:4
55,52:5
55,53:4
55,54:5
55,55:3
55,56:3
56,1:4
56,2:3
56,3:4
56,4:3
56,5:3
56,6:4
56,7:4
56,8:5
56,9:3
56,10:4
56,11:5
56,12:4
56,13:3
56,14:3
56,15:5
56,16:5
56,17:3
56,18:4
56,19:3
56,20:3
56,21:3
56,22:5
56,23:3
56,24:4
56,25:4
56,26:5
56,27:5
56,28:3
56,29:5
56,30:4
56,31:3
56,32:3
56,33:4
56,34:4
56,35:5
56,36:3
56,37:5
56,38:3
56,39:4
56,40:5
56,41:5
56,42:5
56,43:4
56,44:4
56,45:4
56,46:3
56,47:5
56,48:5
56,49:4
56,50:3
56,51:4
56,52:5
56,53:4
56,54:5
56,55:3
56,56:3
57,1:3
57,2:2
57,3:3
57,4:2
57,5:2
57,6:3
57,7:3
57,8:4
57,9:2
57,10:3
57,11:4
57,12:3
57,13:2
57,14:2
57,15:4
57,16:4
57,17:2
57,18:3
57,19:2
57,20:2
57,21:2
57,22:4
57,23:2
57,24:3
57,25:3
57,26:4
57,27:4
57,28:2
57,29:4
57,30:3
57,31:2
57,32:2
57,33:3
57,34:3
57,35:4
57,36:2
57,37:4
57,38:2
57,39:3
57,40:4
57,41:4
57,42:4
57,43:3
57,44:3
57,45:3
57,46:2
57,47:4
57,48:4
57,49:3
57,50:2
57,51:3
57,52:4
57,53:3
57,54:4
57,55:2
57,56:2
57,57:3
58,1:2
58,2:1
58,3:2
58,4:1
58,5:1
58,6:2
58,7:2
58,8:3
58,9:1
58,10:2
58,11:3
58,12:2
58,13:1
58,14:1
58,15:3
58,16:3
58,17:1
58,18:2
58,19:1
58,20:1
58,21:1
58,22:3
58,23:1
58,24:2
58,25:2
58,26:3
58,27:3
58,28:1
58,29:3
58,30:2
58,31:1
58,32:1
58,33:2
58,34:2
58,35:3
58,36:1
58,37:3
58,38:1
58,39:2
58,40:3
58,41:3
58,42:3
58,43:2
58,44:2
58,45:2
58,46:1
58,47:3
58,48:3
58,49:2
58,50:1
58,51:2
58,52:3
58,53:2
58,54:3
58,55:1
58,56:1
58,57:2
58,58:3

<end>

<optimal SALBP-1 value>
29


<rand seed>
467321153

<Lower Bounds>
Lm1=28
Lms1=28
Lm2=26
Lm3=24
Lm4=28
Best=28

<Optimal Stations (Iterations: 10)>
36
